<number of tasks>
50

<cycle time>
1000

<order strength>
0.901


<task times>
1 446
2 492
3 421
4 496
5 503
6 288
7 417
8 437
9 455
10 388
11 558
12 420
13 503
14 688
15 277
16 461
17 608
18 569
19 454
20 638
21 710
22 413
23 672
24 518
25 498
26 251
27 663
28 640
29 610
30 443
31 544
32 558
33 261
34 470
35 420
36 444
37 532
38 457
39 483
40 597
41 352
42 612
43 348
44 610
45 602
46 522
47 357
48 559
49 625
50 521

<precedence relations>
1,6
2,4
2,5
2,7
3,4
3,5
3,6
4,8
4,9
4,10
4,11
5,10
5,11
6,8
6,9
6,10
6,11
7,8
7,10
7,11
8,12
8,14
9,12
9,13
9,14
10,12
10,13
10,14
11,12
11,13
11,14
12,15
12,16
13,15
13,16
14,15
14,16
15,17
15,18
16,17
16,18
17,19
17,20
17,21
18,19
18,20
18,21
19,22
19,23
19,24
20,22
20,23
20,24
21,22
21,23
22,26
22,29
23,25
23,26
24,25
25,27
25,29
25,30
26,27
26,28
27,37
27,43
28,31
29,32
29,34
30,31
31,32
31,33
31,34
32,35
32,36
33,36
34,36
34,37
35,38
35,39
35,40
36,39
36,42
37,48
38,41
39,41
40,41
40,42
41,43
43,44
43,45
43,46
44,47
44,49
45,48
45,49
45,50

<end>
